HUN,8,6,445
0,13,4,94,3,43,1,78,5,4,2,23
5,22,0,53,4,5,2,31,3,36,1,51
0,16,2,34,1,7,5,58,3,49,4,64
5,4,1,97,4,36,3,93,0,83,2,21
0,4,5,83,3,9,4,45,1,95,2,38
2,60,5,86,4,85,3,42,1,84,0,55
4,16,2,33,1,51,3,96,0,95,5,95
2,45,4,79,0,65,3,21,1,26,5,83
